20191113 100100.00 94900.00
20180625 70900.00 62800.00
20170630 70884.85 53936.91
20170623 70884.85 53936.91
20170425 66674.76 53936.91
20160630 66674.76 53252.71
20160427 66674.76 53252.71
20150630 66674.76 52764.00
